p wcnf 166 196 197 
1 140 -82 0 
1 -46 57 0 
1 153 151 0 
1 -28 -54 0 
1 23 47 0 
1 65 9 0 
1 -111 122 0 
1 134 -72 0 
1 -3 -37 0 
1 -141 -116 0 
1 68 -22 0 
1 -147 -68 0 
1 -18 77 0 
1 145 166 0 
1 -78 118 0 
1 -11 39 0 
1 -155 -157 0 
1 75 -112 0 
1 7 -19 0 
1 13 61 0 
1 35 120 0 
1 -20 -142 0 
1 58 38 0 
1 75 153 0 
1 -12 54 0 
1 -83 131 0 
1 124 69 0 
1 112 -75 0 
1 31 -111 0 
1 70 2 0 
1 125 -159 0 
1 54 -105 0 
1 94 90 0 
1 147 107 0 
1 -83 103 0 
1 59 147 0 
1 124 -132 0 
1 -86 46 0 
1 41 -116 0 
1 -48 -114 0 
1 -11 158 0 
1 -80 -18 0 
1 -93 163 0 
1 149 47 0 
1 -125 -32 0 
1 69 -38 0 
1 102 63 0 
1 -78 -99 0 
1 100 99 0 
1 109 124 0 
1 35 3 0 
1 -82 4 0 
1 -76 43 0 
1 -49 15 0 
1 53 144 0 
1 106 -134 0 
1 29 -90 0 
1 -45 166 0 
1 -119 112 0 
1 126 -87 0 
1 -64 145 0 
1 96 146 0 
1 -151 -124 0 
1 52 1 0 
1 144 93 0 
1 -130 28 0 
1 41 -61 0 
1 -158 -49 0 
1 14 96 0 
1 -86 -157 0 
1 -94 101 0 
1 -44 102 0 
1 38 31 0 
1 -85 -52 0 
1 -5 -14 0 
1 -31 -80 0 
1 154 -66 0 
1 -155 -57 0 
1 118 120 0 
1 -76 -41 0 
1 27 -131 0 
1 157 -56 0 
1 -6 -96 0 
1 -33 -100 0 
1 -127 -52 0 
1 -61 -125 0 
1 47 41 0 
1 -32 -97 0 
1 130 -92 0 
1 -29 92 0 
1 93 -165 0 
1 -131 24 0 
1 -75 -115 0 
1 6 -99 0 
1 83 48 0 
1 37 -49 0 
1 -153 -133 0 
1 40 51 0 
1 -66 -156 0 
1 -1 -127 0 
1 -51 -53 0 
1 62 -91 0 
1 129 -68 0 
1 -102 89 0 
1 46 98 0 
1 -158 135 0 
1 -33 -122 0 
1 -112 87 0 
1 -49 73 0 
1 165 -66 0 
1 40 -81 0 
1 30 -164 0 
1 -131 138 0 
1 135 -33 0 
1 48 -121 0 
1 57 37 0 
1 -165 73 0 
1 -119 86 0 
1 -105 7 0 
1 -9 -1 0 
1 151 4 0 
1 60 -150 0 
1 -70 10 0 
1 -120 -22 0 
1 -39 -85 0 
1 5 -22 0 
1 104 -48 0 
1 83 -45 0 
1 128 82 0 
1 -151 -61 0 
1 -35 52 0 
1 -68 -33 0 
1 29 114 0 
1 79 -84 0 
1 -94 24 0 
1 -35 -42 0 
1 133 -39 0 
1 65 -36 0 
1 150 157 0 
1 99 131 0 
1 -67 -117 0 
1 150 -51 0 
1 157 76 0 
1 -138 -49 0 
1 96 56 0 
1 116 83 0 
1 -24 32 0 
1 137 -83 0 
1 42 -92 0 
1 28 152 0 
1 71 -52 0 
1 -143 77 0 
1 -100 63 0 
1 -161 107 0 
1 62 48 0 
1 147 38 0 
1 -119 89 0 
1 83 166 0 
1 29 107 0 
1 -23 -28 0 
1 -99 150 0 
1 150 -25 0 
1 49 50 0 
1 -88 -24 0 
1 -21 105 0 
1 -12 73 0 
1 43 -98 0 
1 -26 -156 0 
1 -54 -29 0 
1 72 -59 0 
1 -67 -152 0 
1 75 -161 0 
1 163 8 0 
1 51 -26 0 
1 112 -151 0 
1 159 111 0 
1 121 -52 0 
1 -20 11 0 
1 24 -148 0 
1 107 -71 0 
1 137 -8 0 
1 153 116 0 
1 15 80 0 
1 115 -89 0 
1 -71 -12 0 
1 112 -163 0 
1 -102 -160 0 
1 72 -62 0 
1 -164 68 0 
1 -78 -36 0 
1 -37 101 0 
1 -147 144 0 
1 114 -37 0 
1 130 121 0 
1 30 -85 0 
1 -155 39 0 
